%%% static parameters %%%
timespan = 1;
Fact = [2];
Distr1 = [5];
Distr2 = [10];
Clients_N = [100];
Demand_W = [15];
Lt0 = [4];
Lt1 = [4];
SS_ = [0.85];
DS_D = [8];
K = [200];
MA = [500];
%%% dynamic parameters %%%
lost_ratio_sales_ret_th = 0.2382158651079903;
lost_ratio_sales_ret_w = 97;
lost_ratio_sales_dis_th = 0.9956353640004089;
lost_ratio_sales_dis_w = 79;
lost_ratio_sales_fac_th = 0.9921340949782684;
lost_ratio_sales_fac_w = 65;
stock_customer_MA_mean_relative_th = 0.8172275771060177;
stock_customer_MA_mean_relative_w = 48;
stock_distributor_MA_mean_relative_th = 0.9510608844079367;
stock_distributor_MA_mean_relative_w = 80;
stock_retailer_MA_mean_relative_th = 0.30168877187752563;
stock_retailer_MA_mean_relative_w = 36;
stock_factory_MA_mean_relative_th = 0.7295120604129335;
stock_factory_MA_mean_relative_w = 17;
